
******************************************************************************
This program contains Ipopt, a library for large-scale nonlinear optimization.
 Ipopt is released as open source code under the Eclipse Public License (EPL).
         For more information visit http://projects.coin-or.org/Ipopt
******************************************************************************

This is Ipopt version 3.12.6, running with linear solver ma57.

Number of nonzeros in equality constraint Jacobian...:        0
Number of nonzeros in inequality constraint Jacobian.:       30
Number of nonzeros in Lagrangian Hessian.............:       15

Total number of variables............................:        8
                     variables with only lower bounds:        0
                variables with lower and upper bounds:        8
                     variables with only upper bounds:        0
Total number of equality constraints.................:        0
Total number of inequality constraints...............:       10
        inequality constraints with only lower bounds:       10
   inequality constraints with lower and upper bounds:        0
        inequality constraints with only upper bounds:        0

iter    objective    inf_pr   inf_du lg(mu)  ||d||  lg(rg) alpha_du alpha_pr  ls
   0 -7.7500000e+00 4.00e+00 8.42e-01  -1.0 0.00e+00    -  0.00e+00 0.00e+00   0
   1 -7.3771348e+00 2.80e+00 2.64e+00  -1.0 2.93e+00    -  8.43e-02 2.95e-01h  1
   2 -5.1609027e+00 7.47e-01 1.26e+00  -1.0 7.37e-01    -  2.42e-01 7.16e-01h  1
   3 -4.1089591e+00 1.30e-01 4.37e+00  -1.0 3.40e-01    -  3.38e-01 8.37e-01h  1
   4 -3.9317030e+00 0.00e+00 1.00e-06  -1.0 1.20e-01    -  1.00e+00 1.00e+00f  1
   5 -4.3181908e+00 0.00e+00 4.95e-01  -2.5 5.41e-01    -  7.60e-01 1.00e+00f  1
   6 -4.4565264e+00 0.00e+00 2.83e-08  -2.5 2.59e-01    -  1.00e+00 1.00e+00f  1
   7 -4.4807970e+00 0.00e+00 4.28e-03  -3.8 6.11e-02    -  9.82e-01 9.07e-01f  1
   8 -4.4824188e+00 0.00e+00 1.50e-09  -3.8 1.19e-02    -  1.00e+00 1.00e+00f  1
   9 -4.4832117e+00 0.00e+00 1.84e-11  -5.7 6.19e-03    -  1.00e+00 1.00e+00f  1
iter    objective    inf_pr   inf_du lg(mu)  ||d||  lg(rg) alpha_du alpha_pr  ls
  10 -4.4832102e+00 0.00e+00 1.84e-11  -5.7 1.47e-03    -  1.00e+00 1.00e+00f  1
  11 -4.4832194e+00 0.00e+00 2.51e-14  -8.6 1.57e-04    -  1.00e+00 1.00e+00f  1
Reallocating memory for MA57: lfact (544)
  12 -4.4832194e+00 0.00e+00 2.51e-14  -8.6 1.11e-06    -  1.00e+00 1.00e+00h  1

Number of Iterations....: 12

                                   (scaled)                 (unscaled)
Objective...............:  -4.4832194072319798e+00   -4.4832194072319798e+00
Dual infeasibility......:   2.5091040356528538e-14    2.5091040356528538e-14
Constraint violation....:   0.0000000000000000e+00    0.0000000000000000e+00
Complementarity.........:   2.5078595889577203e-09    2.5078595889577203e-09
Overall NLP error.......:   2.5078595889577203e-09    2.5078595889577203e-09


Number of objective function evaluations             = 13
Number of objective gradient evaluations             = 13
Number of equality constraint evaluations            = 0
Number of inequality constraint evaluations          = 13
Number of equality constraint Jacobian evaluations   = 0
Number of inequality constraint Jacobian evaluations = 13
Number of Lagrangian Hessian evaluations             = 12
Total CPU secs in IPOPT (w/o function evaluations)   =      0.007
Total CPU secs in NLP function evaluations           =      0.000

EXIT: Optimal Solution Found.

************************ CUTEst statistics ************************


 Package used            :  IPOPT
 Problem                 :  AVGASB    
 # variables             =               8
 # constraints           =              10
 # objective functions   =        0.2700000E+02
 # objective gradients   =        0.1400000E+02
 # objective Hessians    =        0.1300000E+02
 # Hessian-vector prdct  =        0.0000000E+00
 # constraints functions =        0.2800000E+02
 # constraints gradients =        0.1500000E+02
 # constraints Hessians  =        0.1300000E+02
 Exit code               =               0
 Final f                 =  -0.4483219E+01
 Set up time             =            0.00 seconds
 Solve time              =            0.02 seconds


******************************************************************

System Time =       0.0049999999 s.
